 vasp.6.2.1 16May21 (build Sep 13 2021 08:36:44) complex

 executed on             LinuxIFC date 2023.04.28  16:25:58

 INCAR:
   ADDGRID = .FALSE.
   ALGO = NORMAL
   EDIFF = 1e-06
   EDIFFG = -0.02
   ENCUT = 500.0
   GGA = PE
   IBRION = 2
   ISIF = 3
   ISMEAR = 0
   ISPIN = 2
   ISYM = 1
   IVDW = 12
   KSPACING = 0.5
   LASPH = .FALSE.
   LCHARG = False
   LORBIT = 10
   LPLANE = .TRUE.
   LREAL = AUTO
   LWAVE = False
   NCORE = 4
   NEDOS = 101
   NELM = 1000
   NELMDL = -12
   NELMIN = 6
   NSW = 100
   NWRITE = 1
   POTIM = 0.25
   PREC = Normal
   SIGMA = 0.1
   SYSTEM = C4

 POTCAR:    PAW_PBE C_GW 28Sep2005
|           W    W    AA    RRRRR   N    N  II  N    N   GGGG   !!!           |
|           W    W   A  A   R    R  NN   N  II  NN   N  G    G  !!!           |
|           W    W  A    A  R    R  N N  N  II  N N  N  G       !!!           |
|           W WW W  AAAAAA  RRRRR   N  N N  II  N  N N  G  GGG   !            |
|           WW  WW  A    A  R   R   N   NN  II  N   NN  G    G                |
|           W    W  A    A  R    R  N    N  II  N    N   GGGG   !!!           |
|     You use a magnetic or noncollinear calculation, but did not specify     |
|     the initial magnetic moment with the MAGMOM tag. Note that a            |
|     default of 1 will be used for all atoms. This ferromagnetic setup       |
|     may break the symmetry of the crystal, in particular it may rule        |
|     out finding an antiferromagnetic solution. Thence, we recommend         |
|     setting the initial magnetic moment manually or verifying carefully     |
|     that this magnetic setup is desired.                                    |

 POTCAR:    PAW_PBE C_GW 28Sep2005

 Optimization of the real space projectors (new method)

 maximal supplied QI-value         = 25.13
 optimisation between [QCUT,QGAM] = [ 11.31, 22.87] = [ 35.82,146.48] Ry
 Optimized for a Real-space Cutoff    1.07 Angstroem

   l    n(q)    QCUT    max X(q) W(low)/X(q) W(high)/X(q)  e(spline)
   0      7    11.310     6.744    0.16E-03    0.38E-03    0.95E-07
   0      7    11.310     2.789    0.17E-03    0.49E-03    0.14E-06
   1      7    11.310     2.977    0.19E-03    0.32E-03    0.17E-07
   1      7    11.310     2.397    0.35E-03    0.49E-03    0.12E-06
  PAW_PBE C_GW 28Sep2005                :

 POSCAR:  C
  positions in direct lattice
 exchange correlation table for  LEXCH =        8
   RHO(1)=    0.500       N(1)  =     2000
   RHO(2)=  100.500       N(2)  =     4000

 ion  position               nearest neighbor table
   1  0.000  0.000  0.250-   3 1.42   3 1.42   3 1.42
   2  0.000  0.000  0.750-   4 1.42   4 1.42   4 1.42
   3  0.333  0.667  0.250-   1 1.42   1 1.42   1 1.42
   4  0.667  0.333  0.750-   2 1.42   2 1.42   2 1.42

  LATTYP: Found a hexagonal cell.
 ALAT       =     2.4559999985
 C/A-ratio  =     2.0358306201

  Lattice vectors:

 A1 = (   1.2280000000,  -2.1269583900,   0.0000000000)
 A2 = (   1.2280000000,   2.1269583900,   0.0000000000)
 A3 = (   0.0000000000,   0.0000000000,   5.0000000000)

Analysis of symmetry for initial positions (statically):
 Subroutine PRICEL returns:
 Original cell was already a primitive cell.

 Routine SETGRP: Setting up the symmetry group for a
 hexagonal supercell.

 Subroutine GETGRP returns: Found 24 space group operations
 (whereof 12 operations were pure point group operations)
 out of a pool of 24 trial point group operations.

The static configuration has the point symmetry D_3d.
 The point group associated with its full space group is D_6h.

Analysis of symmetry for dynamics (positions and initial velocities):
 Subroutine PRICEL returns:
 Original cell was already a primitive cell.

[...]

The dynamic configuration has the point symmetry D_3d.
 The point group associated with its full space group is D_6h.

Analysis of structural, dynamic, and magnetic symmetry:
 Subroutine PRICEL returns:
 Original cell was already a primitive cell.

 Routine SETGRP: Setting up the symmetry group for a
 hexagonal supercell.

 Subroutine GETGRP returns: Found 24 space group operations
 (whereof 12 operations were pure point group operations)
 out of a pool of 24 trial point group operations.

The overall configuration has the point symmetry D_3d.
 The point group associated with its full space group is D_6h.

 Subroutine INISYM returns: Found 24 space group operations
 (whereof 12 operations are pure point group operations),
 and found     1 'primitive' translations

                                     Primitive cell

  volume of cell :      26.1190

  direct lattice vectors                    reciprocal lattice vectors
     1.228000000 -2.126958390  0.000000000     0.407166124 -0.235077471  0.000000000
     1.228000000  2.126958390  0.000000000     0.407166124  0.235077471  0.000000000
     0.000000000  0.000000000  5.000000000     0.000000000  0.000000000  0.200000000

  length of vectors
     2.455999999  2.455999999  5.000000000     0.470154942  0.470154942  0.200000000

  position of ions in fractional coordinates (direct lattice)
     0.000000000  0.000000000  0.250000000
     0.000000000  0.000000000  0.750000000
     0.333333330  0.666666670  0.250000000
     0.666666670  0.333333330  0.750000000

  ion indices of the primitive-cell ions
   primitive index   ion index
                 1           1
                 2           2
                 3           3
                 4           4

 KPOINTS: Automatic kpoint scheme

Automatic generation of k-mesh.
 Grid dimensions read from file:
 generate k-points for:    6    6    6

 Generating k-lattice:

  Cartesian coordinates                     Fractional coordinates (reciprocal lattice)
     0.067861021 -0.039179579  0.000000000     0.166666667  0.000000000  0.000000000
     0.067861021  0.039179579  0.000000000     0.000000000  0.166666667  0.000000000
     0.000000000  0.000000000  0.033333333     0.000000000  0.000000000  0.166666667

  Length of vectors
     0.078359157  0.078359157  0.033333333

  Shift w.r.t. Gamma in fractional coordinates (k-lattice)
     0.500000000  0.500000000  0.500000000

 Subroutine IBZKPT returns following result:

 Found     36 irreducible k-points:

 Following reciprocal coordinates:
            Coordinates               Weight
  0.083333  0.083333  0.083333     12.000000
  0.250000  0.083333  0.083333     24.000000
  0.416667  0.083333  0.083333     24.000000
 -0.416667  0.083333  0.083333     24.000000
 -0.250000  0.083333  0.083333     24.000000
 -0.083333  0.083333  0.083333     12.000000
  0.250000  0.250000  0.083333     12.000000
  0.416667  0.250000  0.083333     24.000000
 -0.416667  0.250000  0.083333     24.000000
 -0.250000  0.250000  0.083333     12.000000
  0.416667  0.416667  0.083333     12.000000
 -0.416667  0.416667  0.083333     12.000000
  0.083333  0.083333  0.250000     12.000000
  0.250000  0.083333  0.250000     24.000000
  0.416667  0.083333  0.250000     24.000000
 -0.416667  0.083333  0.250000     24.000000
 -0.250000  0.083333  0.250000     24.000000
 -0.083333  0.083333  0.250000     12.000000
  0.250000  0.250000  0.250000     12.000000
  0.416667  0.250000  0.250000     24.000000
 -0.416667  0.250000  0.250000     24.000000
 -0.250000  0.250000  0.250000     12.000000
  0.416667  0.416667  0.250000     12.000000
 -0.416667  0.416667  0.250000     12.000000
  0.083333  0.083333  0.416667     12.000000
  0.250000  0.083333  0.416667     24.000000
  0.416667  0.083333  0.416667     24.000000
 -0.416667  0.083333  0.416667     24.000000
 -0.250000  0.083333  0.416667     24.000000
 -0.083333  0.083333  0.416667     12.000000
  0.250000  0.250000  0.416667     12.000000
  0.416667  0.250000  0.416667     24.000000
 -0.416667  0.250000  0.416667     24.000000
 -0.250000  0.250000  0.416667     12.000000
  0.416667  0.416667  0.416667     12.000000
 -0.416667  0.416667  0.416667     12.000000

 Following cartesian coordinates:
            Coordinates               Weight
  0.067861  0.000000  0.016667     12.000000
  0.135722 -0.039180  0.016667     24.000000
  0.203583 -0.078359  0.016667     24.000000
 -0.135722  0.117539  0.016667     24.000000
 -0.067861  0.078359  0.016667     24.000000
  0.000000  0.039180  0.016667     12.000000
  0.203583  0.000000  0.016667     12.000000
  0.271444 -0.039180  0.016667     24.000000
 -0.067861  0.156718  0.016667     24.000000
  0.000000  0.117539  0.016667     12.000000
  0.339305  0.000000  0.016667     12.000000
  0.000000  0.195898  0.016667     12.000000
  0.067861  0.000000  0.050000     12.000000
  0.135722 -0.039180  0.050000     24.000000
  0.203583 -0.078359  0.050000     24.000000
 -0.135722  0.117539  0.050000     24.000000
 -0.067861  0.078359  0.050000     24.000000
  0.000000  0.039180  0.050000     12.000000
  0.203583  0.000000  0.050000     12.000000
  0.271444 -0.039180  0.050000     24.000000
 -0.067861  0.156718  0.050000     24.000000
  0.000000  0.117539  0.050000     12.000000
  0.339305  0.000000  0.050000     12.000000
  0.000000  0.195898  0.050000     12.000000
  0.067861  0.000000  0.083333     12.000000
  0.135722 -0.039180  0.083333     24.000000
  0.203583 -0.078359  0.083333     24.000000
 -0.135722  0.117539  0.083333     24.000000
 -0.067861  0.078359  0.083333     24.000000
  0.000000  0.039180  0.083333     12.000000
  0.203583  0.000000  0.083333     12.000000
  0.271444 -0.039180  0.083333     24.000000
 -0.067861  0.156718  0.083333     24.000000
  0.000000  0.117539  0.083333     12.000000
  0.339305  0.000000  0.083333     12.000000
  0.000000  0.195898  0.083333     12.000000

 SYSTEM =  C4
 POSCAR =   C

 Startparameter for this run:
   NWRITE =      1    write-flag & timer
   PREC   = normal    normal or accurate (medium, high low for compatibility)
   ISTART =      0    job   : 0-new  1-cont  2-samecut
   ICHARG =      2    charge: 1-file 2-atom 10-const
   ISPIN  =      2    spin polarized calculation?
   LNONCOLLINEAR =      F non collinear calculations
   LSORBIT =      F    spin-orbit coupling
   INIWAV =      1    electr: 0-lowe 1-rand  2-diag
   LASPH  =      F    aspherical Exc in radial PAW
 Electronic Relaxation 1
   ENCUT  =  500.0 eV  36.75 Ry    6.06 a.u.   4.48  4.48  9.12*2*pi/ulx,y,z
   ENINI  =  500.0     initial cutoff
   ENAUG  =  644.9 eV  augmentation charge cutoff
   NELM   =   1000;   NELMIN=  6; NELMDL=-12     # of ELM steps
   EDIFF  = 0.1E-05   stopping-criterion for ELM
   LREAL  =      T    real-space projection
   NLSPLINE    = F    spline interpolate recip. space projectors
   LCOMPAT=      F    compatible to vasp.4.4
   GGA_COMPAT  = T    GGA compatible to vasp.4.4-vasp.4.6
   LMAXPAW     = -100 max onsite density
   LMAXMIX     =    2 max onsite mixed and CHGCAR
   VOSKOWN=      0    Vosko Wilk Nusair interpolation
   ROPT   =   -0.00050
 Ionic relaxation
   EDIFFG = -.2E-01   stopping-criterion for IOM
   NSW    =    100    number of steps for IOM
   NBLOCK =      1;   KBLOCK =    100    inner block; outer block
   IBRION =      2    ionic relax: 0-MD 1-quasi-New 2-CG
   NFREE  =      1    steps in history (QN), initial steepest desc. (CG)
   ISIF   =      3    stress and relaxation
[...]
  (NGX  = 28   NGY  = 28   NGZ  = 56)
  gives a total of   1539 points

 initial charge density was supplied:
 charge density of overlapping atoms calculated
 number of electron      16.0000000 magnetization       4.0000000
 keeping initial charge density in first step

 Maximum index for non-local projection operator         1029
 Maximum index for augmentation-charges         2415 (set IRDMAX)

 First call to EWALD:  gamma=   0.597
 Maximum number of real-space cells 4x 4x 2
 Maximum number of reciprocal cells 2x 2x 4

--------------------------------------- Iteration      1(   1)  ---------------------------------------

 eigenvalue-minimisations  :  2016
 total energy-change (2. order) : 0.5981081E+02  (-0.8311872E+03)
 number of electron      16.0000000 magnetization       4.0000000
 augmentation part       16.0000000 magnetization       4.0000000

 Free energy of the ion-electron system (eV)
  alpha Z        PSCENC =        49.91309931
  Ewald energy   TEWEN  =      -618.34426812
  -Hartree energ DENC   =       -62.85416062
  -exchange      EXHF   =         0.00000000
  -V(xc)+E(xc)   XCENC  =        57.20447535
  PAW double counting   =       431.24634053     -435.81739869
  entropy T*S    EENTRO =        -0.00392125
  eigenvalues    EBANDS =        49.87295717
  atomic energy  EATOM  =       588.59368669
  Solvation  Ediel_sol  =         0.00000000
  free energy    TOTEN  =        59.81081036 eV

  energy without entropy =       59.81473162  energy(sigma->0) =       59.81277099

[...]

 eigenvalue-minimisations  :  2910
 total energy-change (2. order) :-0.9257299E+02  (-0.8239636E+02)
 number of electron      16.0000000 magnetization       4.0000000
 augmentation part       16.0000000 magnetization       4.0000000

[...]

 Broyden mixing:
  rms(total) = 0.12223E+01    rms(broyden)= 0.12221E+01
  rms(prec ) = 0.17458E+01
  weight for this iteration     100.00

[...]

 eigenvalues of (default mixing * dielectric matrix)
  average eigenvalue GAMMA=   0.9342
  0.9342

[...]

 Broyden mixing:
  rms(total) = 0.11051E-03    rms(broyden)= 0.11048E-03
  rms(prec ) = 0.13590E-03
  weight for this iteration     100.00

[...]

 Free energy of the ion-electron system (eV)
  alpha Z        PSCENC =        49.91309931
  Ewald energy   TEWEN  =      -618.34426812
  -Hartree energ DENC   =       -87.47008904
  -exchange      EXHF   =         0.00000000
  -V(xc)+E(xc)   XCENC  =        58.52469064
  PAW double counting   =       810.40616351     -815.83824665
  entropy T*S    EENTRO =        -0.00000000
  eigenvalues    EBANDS =       -21.61175421
  atomic energy  EATOM  =       588.59368669
  Solvation  Ediel_sol  =         0.00000000
  free energy    TOTEN  =       -35.82671788 eV

  energy without entropy =      -35.82671788  energy(sigma->0) =      -35.82671788

 average (electrostatic) potential at core
  the test charge radii are     0.6991
  (the norm of the test charge is              1.0000)
       1 -47.6021       2 -47.6021       3 -47.3462       4 -47.3462

 E-fermi :   8.0911     XC(G=0): -12.3194     alpha+bet :-15.3742

 Fermi energy:         8.0910857530

 spin component 1

 k-point     1 :       0.0833    0.0833    0.0833
  band No.  band energies     occupation
      1     -12.2601      1.00000
      2     -10.3523      1.00000
      3      -1.9362      1.00000
      4       2.9215      1.00000
      5       3.2240      1.00000
      6       3.7540      1.00000
      7       3.9854      1.00000
      8       4.5547      1.00000
      9      16.1942      0.00000
     10      16.6052      0.00000
     11      16.7768      0.00000
     12      17.6147      0.00000
     13      17.8428      0.00000
     14      18.1329      0.00000

[...]

 k-point    36 :      -0.4167    0.4167    0.4167
  band No.  band energies     occupation
      1      -8.0934      1.00000
      2      -7.6773      1.00000
      3      -4.1873      1.00000
      4      -3.8573      1.00000
      5       1.4929      1.00000
      6       1.6516      1.00000
      7       4.0948      1.00000
      8       5.3332      1.00000
      9      10.1392      0.00000
     10      10.9863      0.00000
     11      15.0522      0.00000
     12      15.6706      0.00000
     13      22.6461      0.00000
     14      23.4770      0.00000
 Fermi energy:         8.0910857530

[...]

 soft charge-density along one line, spin component           1
         0         1         2         3         4         5         6         7         8         9
 total charge-density along one line

[...]

------------------------ aborting loop because EDIFF is reached ----------------------------------------

 total charge

# of ion       s       p       d       tot
    1        0.842   1.750   0.000   2.593
    2        0.842   1.750   0.000   2.593
    3        0.834   1.779   0.000   2.613
    4        0.834   1.779   0.000   2.613
tot          3.351   7.059   0.000  10.410

 magnetization (x)

[...]

         DFTD3 V3.0 Rev 1
 IVDW         = 12
 DF pbe
 parameters
 VDW_S6       =    1.0000
 VDW_S8       =    0.7875
 VDW_A1       =    0.4289
 VDW_A2       =    4.4407
 k1-k3        =   16.0000    1.3333   -4.0000
 VDW_RADIUS   =   50.2022 A
 VDW_CNRADIUS =   21.1671 A
 Edisp (eV)   -0.81699

 E6    (eV) :    -0.5808
 E8    (eV) :    -0.2362
 % E8        : 28.91

  FORCE on cell =-STRESS in cart. coord.  units (eV):
  Direction    XX          YY          ZZ          XY          YZ          ZX
  Alpha Z    49.91310    49.91310    49.91310
  Ewald     -76.99772   -76.99771  -464.34870     0.00000    -0.00000     0.00000
  Hartree    65.59605    65.59605   -43.72173     0.00000     0.00000    -0.00000
  E(xc)     -59.30540   -59.30540   -60.72843    -0.00000     0.00000     0.00000
  Local    -206.86399  -206.86393   258.20351     0.00000    -0.00000     0.00000
  n-local   -22.01101   -22.02159   -20.72669     0.46227     0.03285    -0.01190
  augment    -0.96200    -0.96208    -0.82496    -0.00000    -0.00000     0.00000
  Kinetic   251.58086   250.63023   290.85642    -4.03363    -0.37215     0.17053
  Fock        0.00000     0.00000     0.00000     0.00000     0.00000     0.00000
  vdW         0.34369     0.34369    -0.21696     0.00000     0.00000    -0.00000
  Total       0.81297     0.81297     8.40557     0.00000    -0.00000    -0.00000
  in kB      49.86852    49.86852   515.60888     0.00000    -0.00000    -0.00000

 VOLUME and BASIS-vectors are now :
  energy-cutoff  :      500.00
  volume of cell :       26.12
      direct lattice vectors                 reciprocal lattice vectors
     1.228000000 -2.126958390  0.000000000     0.407166124 -0.235077471  0.000000000
     1.228000000  2.126958390  0.000000000     0.407166124  0.235077471  0.000000000
     0.000000000  0.000000000  5.000000000     0.000000000  0.000000000  0.200000000

[...]

 FORCES acting on ions
    electron-ion (+dipol)            ewald-force                    non-local-force                 convergence-correction
   -.386E-14 -.127E-05 0.229E-13   0.447E-14 0.270E-05 -.138E-13   -.468E-16 0.937E-16 0.651E-18   0.775E-15 -.665E-08 -.360E-13
   0.386E-14 0.127E-05 0.718E-13   -.393E-14 -.270E-05 0.138E-13   -.191E-16 -.154E-15 0.412E-17   -.125E-14 0.665E-08 0.226E-13
   0.531E-13 -.144E-05 -.114E-12   -.576E-14 -.279E-05 -.138E-13   0.748E-17 -.111E-15 -.434E-18   0.500E-14 0.727E-08 -.348E-13
   0.459E-13 0.144E-05 0.161E-12   0.318E-14 0.279E-05 0.138E-13   -.325E-16 0.191E-15 0.434E-18   -.339E-14 -.727E-08 0.233E-13
   0.990E-13 0.187E-12 0.142E-12   -.205E-14 0.194E-15 0.000E+00   -.910E-16 0.193E-16 0.477E-17   0.113E-14 -.237E-14 -.249E-13

 POSITION                                       TOTAL-FORCE (eV/Angst)
      0.00000      0.00000      1.25000         0.000000      0.000000     -0.000000
      0.00000      0.00000      3.75000        -0.000000     -0.000000      0.000000
      1.22800      0.70899      1.25000         0.000000     -0.000000      0.000000
      1.22800     -0.70899      3.75000        -0.000000     -0.000000      0.000000
    total drift:                                0.000000      0.000000      0.000000

  FREE ENERGIE OF THE ION-ELECTRON SYSTEM (eV)
  free  energy   TOTEN  =       -36.64370640 eV

  energy  without entropy=      -36.64370640  energy(sigma->0) =      -36.64370640

[...]

  free energy =  -0.364534268309E+02  energy without entropy=  -0.364534268309E+02

[...]

         DFTD3 V3.0 Rev 1
 Edisp (eV)   -0.80031

[...]

 d Force = 0.0000000E+00[ 0.000E+00, 0.000E+00]  d Energy = 0.3404225E+00-0.340E+00
 d Force = 0.0000000E+00[ 0.000E+00, 0.000E+00]  d Ewald  =-0.2405376E+02 0.241E+02

 Steepest descent step on ions:
 trial-energy change:   -0.340423  1 .order   -0.352519   -0.434036   -0.271001
  (g-gl).g = 0.434E+00      g.g   = 0.434E+00  gl.gl    = 0.000E+00
 g(Force)  = 0.204E-45   g(Stress)= 0.434E+00 ortho     = 0.000E+00
 gamma     =   0.00000
 trial     =   1.00000
 opt step  =   2.66223  (harmonic =   2.66223) maximal distance =0.00000000
 next E    =   -37.221459   (d E  =  -0.57775)

[...]

 d Force = 0.0000000E+00[ 0.000E+00, 0.000E+00]  d Energy =-0.3467620E-01 0.347E-01
 d Force = 0.0000000E+00[ 0.000E+00, 0.000E+00]  d Ewald  =-0.2079283E+02 0.208E+02

 Conjugate gradient step on ions:
 trial-energy change:    0.034676  1 .order    0.043248   -0.275224    0.361720
  (g-gl).g = 0.180E+00      g.g   = 0.189E+00  gl.gl    = 0.434E+00
 g(Force)  = 0.195E-45   g(Stress)= 0.189E+00 ortho     = 0.928E-02
 gamma     =   0.41401
 trial     =   1.42740
 opt step  =   0.64533  (harmonic =   0.61678) maximal distance =0.00000000
 next E    =   -37.300729   (d E  =  -0.06301)

[...]

 d Force = 0.0000000E+00[ 0.000E+00, 0.000E+00]  d Energy = 0.9912319E-01-0.991E-01
 d Force = 0.0000000E+00[ 0.000E+00, 0.000E+00]  d Ewald  = 0.1183689E+02-0.118E+02

[...]

 d Force = 0.0000000E+00[ 0.000E+00, 0.000E+00]  d Energy =-0.6657793E-08 0.666E-08
 d Force = 0.0000000E+00[ 0.000E+00, 0.000E+00]  d Ewald  =-0.9484133E-02 0.948E-02

[...]

 eigenvalue-minimisations  :  2016
 total energy-change (2. order) :-0.3871180E-02  (-0.4596265E-02)
 number of electron      15.9999997 magnetization      -0.0000000
 augmentation part        0.2173018 magnetization      -0.0000000

[...]

 eigenvalues of (default mixing * dielectric matrix)
  average eigenvalue GAMMA=   1.5959
  2.4273  1.7041  1.3764  0.8757

[...]

--------------------------------------- Iteration      9(   6)  ---------------------------------------

 eigenvalue-minimisations  :  1536
 total energy-change (2. order) : 0.3288335E-07  (-0.2088096E-07)
 number of electron      15.9999998 magnetization       0.0000000
 augmentation part        0.2164120 magnetization      -0.0000000

  free energy =  -0.365812165816E+02  energy without entropy=  -0.365812165816E+02

 average (electrostatic) potential at core
  the test charge radii are     0.6991
  (the norm of the test charge is              1.0000)
       1 -49.4808       2 -49.4808       3 -49.3838       4 -49.3838

 E-fermi :   5.8081     XC(G=0): -11.1866     alpha+bet :-12.9636

 Fermi energy:         5.8080554969

[...]

 k-point    36 :      -0.4167    0.4167    0.4167
  band No.  band energies     occupation
      1      -9.7023      1.00000
      2      -9.5537      1.00000
      3      -5.8561      1.00000
      4      -5.7444      1.00000
      5      -0.3069      1.00000
      6      -0.2637      1.00000
      7       2.3992      1.00000
      8       3.0388      1.00000
      9       8.4581      0.00000
     10       8.9282      0.00000
     11      13.3658      0.00000
     12      13.5989      0.00000
     13      18.3092      0.00000
     14      19.4447      0.00000
 Fermi energy:         5.8080554969

 spin component 2

[...]

 k-point    36 :      -0.4167    0.4167    0.4167
  band No.  band energies     occupation
      1      -9.7023      1.00000
      2      -9.5537      1.00000
      3      -5.8561      1.00000
      4      -5.7444      1.00000
      5      -0.3069      1.00000
      6      -0.2637      1.00000
      7       2.3992      1.00000
      8       3.0388      1.00000
      9       8.4581      0.00000
     10       8.9282      0.00000
     11      13.3658      0.00000
     12      13.5989      0.00000
     13      18.3092      0.00000
     14      19.4447      0.00000

[...]

 soft charge-density along one line, spin component           2
         0         1         2         3         4         5         6         7         8         9
 total charge-density along one line

------------------------ aborting loop because EDIFF is reached ----------------------------------------

[...]

         DFTD3 V3.0 Rev 1
 Edisp (eV)   -0.72146

 E6    (eV) :    -0.5140
 E8    (eV) :    -0.2075
 % E8        : 28.76

  FORCE on cell =-STRESS in cart. coord.  units (eV):
  Direction    XX          YY          ZZ          XY          YZ          ZX
  Alpha Z    42.08708    42.08708    42.08708
  Ewald       5.94772     5.94773  -545.59544    -0.00000     0.00000    -0.00000
  Hartree   112.66822   112.66822   -90.40965     0.00000     0.00000    -0.00000
  E(xc)     -58.74782   -58.74782   -60.65356    -0.00000     0.00000     0.00000
  Local    -328.58798  -328.58792   392.15778     0.00000    -0.00000     0.00000
  n-local   -22.64819   -22.64090   -21.62094     0.40161     0.04354    -0.00154
  augment    -0.90746    -0.90754    -0.79604    -0.00000     0.00000     0.00000
  Kinetic   250.32077   250.15851   285.64169    -4.07768    -0.46040     0.02392
  Fock        0.00000     0.00000     0.00000     0.00000     0.00000     0.00000
  vdW         0.00913     0.00913    -0.74520    -0.00000     0.00000     0.00000
  Total       0.06397     0.06397     0.06570    -0.00000    -0.00000     0.00000
  in kB       3.30899     3.30899     3.39830    -0.00000    -0.00000     0.00000

 VOLUME and BASIS-vectors are now :
  energy-cutoff  :      500.00
  volume of cell :       30.98
      direct lattice vectors                 reciprocal lattice vectors
     1.229654822 -2.129824625 -0.000000000     0.406618175 -0.234761113 -0.000000000
     1.229654822  2.129824625 -0.000000000     0.406618175  0.234761113 -0.000000000
     0.000000000 -0.000000000  5.913792382     0.000000000 -0.000000000  0.169096231

  length of vectors
     2.459309642  2.459309642  5.913792382     0.469522226  0.469522226  0.169096231

 FORCES acting on ions
    electron-ion (+dipol)            ewald-force                    non-local-force                 convergence-correction
   0.227E-14 -.121E-05 0.320E-13   0.139E-13 0.272E-05 -.165E-13   0.741E-16 -.433E-16 0.434E-18   -.231E-14 0.313E-08 -.520E-13
   -.227E-14 0.121E-05 0.978E-13   -.883E-14 -.272E-05 0.165E-13   -.500E-17 -.157E-16 -.434E-18   0.217E-14 -.313E-08 0.257E-13
   0.423E-13 -.149E-05 -.148E-12   -.148E-13 -.274E-05 -.165E-13   0.829E-17 0.175E-16 0.271E-18   0.200E-14 -.247E-08 -.516E-13
   0.590E-13 0.149E-05 0.225E-12   0.910E-14 0.274E-05 0.165E-13   -.218E-16 -.735E-17 -.163E-18   -.180E-14 0.247E-08 0.267E-13
   0.101E-12 0.183E-12 0.206E-12   -.586E-15 0.194E-14 -.393E-19   0.556E-16 -.489E-16 0.108E-18   0.618E-16 -.198E-14 -.512E-13

 POSITION                                       TOTAL-FORCE (eV/Angst)
      0.00000     -0.00000      1.47845         0.000000      0.000000      0.000000
      0.00000     -0.00000      4.43534        -0.000000      0.000000      0.000000
      1.22965      0.70994      1.47845         0.000000     -0.000000     -0.000000
      1.22965     -0.70994      4.43534        -0.000000      0.000000     -0.000000
    total drift:                                0.000000      0.000000      0.000000

  FREE ENERGIE OF THE ION-ELECTRON SYSTEM (eV)
  free  energy   TOTEN  =       -37.30267719 eV

  energy  without entropy=      -37.30267719  energy(sigma->0) =      -37.30267719

 d Force = 0.0000000E+00[ 0.000E+00, 0.000E+00]  d Energy = 0.4984236E-03-0.498E-03
 d Force = 0.0000000E+00[ 0.000E+00, 0.000E+00]  d Ewald  =-0.1644091E+01 0.164E+01

 Conjugate gradient step on ions:
 trial-energy change:   -0.000498  1 .order   -0.000521   -0.000813   -0.000229
  (g-gl).g = 0.639E-02      g.g   = 0.639E-03  gl.gl    = 0.189E+00
 g(Force)  = 0.130E-44   g(Stress)= 0.639E-03 ortho     = 0.127E-05
 gamma     =   0.03383
 trial     =   1.27263
 opt step  =   2.08663  (harmonic =   1.77231) maximal distance =0.00000000
 next E    =   -37.302745   (d E  =  -0.00057)

 reached required accuracy - stopping structural energy minimisation

 total charge

[...]

 magnetization (x)

# of ion       s       p       d       tot
    1        0.000   0.000   0.000   0.000
    2        0.000   0.000   0.000   0.000
    3        0.000   0.000   0.000   0.000
    4        0.000   0.000   0.000   0.000
tot          0.000   0.000   0.000   0.000